c Reduced graph for r19 generated by Cyril Grelier
p edge 185 1803
e 1 2
e 1 3
e 1 4
e 1 5
e 1 6
e 1 7
e 1 10
e 1 16
e 1 19
e 1 23
e 1 26
e 1 30
e 1 39
e 1 49
e 1 55
e 1 61
e 1 70
e 1 75
e 1 82
e 1 88
e 1 107
e 1 111
e 1 127
e 1 143
e 2 3
e 2 4
e 2 5
e 2 6
e 2 7
e 2 8
e 2 13
e 2 17
e 2 20
e 2 26
e 2 31
e 2 40
e 2 50
e 2 55
e 2 71
e 2 76
e 2 82
e 2 89
e 2 107
e 2 112
e 2 119
e 2 127
e 2 143
e 3 4
e 3 5
e 3 6
e 3 7
e 3 9
e 3 11
e 3 14
e 3 18
e 3 21
e 3 24
e 3 26
e 3 32
e 3 55
e 3 62
e 3 72
e 3 82
e 3 107
e 3 120
e 3 127
e 3 134
e 3 143
e 3 147
e 4 5
e 4 6
e 4 7
e 4 12
e 4 15
e 4 22
e 4 25
e 4 26
e 4 41
e 4 51
e 4 55
e 4 63
e 4 73
e 4 77
e 4 82
e 4 90
e 4 107
e 4 121
e 4 127
e 4 143
e 4 148
e 5 6
e 5 7
e 5 26
e 5 37
e 5 43
e 5 46
e 5 53
e 5 55
e 5 59
e 5 79
e 5 82
e 5 86
e 5 98
e 5 107
e 5 114
e 5 127
e 5 132
e 5 143
e 5 150
e 6 7
e 6 26
e 6 28
e 6 34
e 6 38
e 6 44
e 6 47
e 6 55
e 6 60
e 6 80
e 6 82
e 6 99
e 6 101
e 6 107
e 6 127
e 6 138
e 6 143
e 6 151
e 7 26
e 7 29
e 7 35
e 7 45
e 7 48
e 7 54
e 7 55
e 7 67
e 7 82
e 7 102
e 7 107
e 7 115
e 7 127
e 7 133
e 7 143
e 7 152
e 7 160
e 8 9
e 8 13
e 8 17
e 8 20
e 8 27
e 8 28
e 8 29
e 8 31
e 8 40
e 8 50
e 8 56
e 8 57
e 8 71
e 8 76
e 8 83
e 8 89
e 8 108
e 8 112
e 8 119
e 8 144
e 8 145
e 8 157
e 9 11
e 9 14
e 9 18
e 9 21
e 9 24
e 9 27
e 9 28
e 9 29
e 9 32
e 9 56
e 9 57
e 9 62
e 9 72
e 9 83
e 9 108
e 9 120
e 9 134
e 9 144
e 9 145
e 9 147
e 9 157
e 10 11
e 10 12
e 10 16
e 10 19
e 10 23
e 10 30
e 10 33
e 10 34
e 10 35
e 10 39
e 10 49
e 10 61
e 10 64
e 10 65
e 10 70
e 10 75
e 10 87
e 10 88
e 10 110
e 10 111
e 10 130
e 10 146
e 11 12
e 11 14
e 11 18
e 11 21
e 11 24
e 11 32
e 11 33
e 11 34
e 11 35
e 11 62
e 11 64
e 11 65
e 11 72
e 11 87
e 11 110
e 11 120
e 11 130
e 11 134
e 11 146
e 11 147
e 12 15
e 12 22
e 12 25
e 12 33
e 12 34
e 12 35
e 12 41
e 12 51
e 12 63
e 12 64
e 12 65
e 12 73
e 12 77
e 12 87
e 12 90
e 12 110
e 12 121
e 12 130
e 12 146
e 12 148
e 13 14
e 13 15
e 13 17
e 13 20
e 13 31
e 13 36
e 13 37
e 13 38
e 13 40
e 13 50
e 13 66
e 13 71
e 13 76
e 13 89
e 13 91
e 13 92
e 13 112
e 13 116
e 13 119
e 13 153
e 13 163
e 14 15
e 14 18
e 14 21
e 14 24
e 14 32
e 14 36
e 14 37
e 14 38
e 14 62
e 14 66
e 14 72
e 14 91
e 14 92
e 14 116
e 14 120
e 14 134
e 14 147
e 14 153
e 14 163
e 15 22
e 15 25
e 15 36
e 15 37
e 15 38
e 15 41
e 15 51
e 15 63
e 15 66
e 15 73
e 15 77
e 15 90
e 15 91
e 15 92
e 15 116
e 15 121
e 15 148
e 15 153
e 15 163
e 16 17
e 16 18
e 16 19
e 16 23
e 16 30
e 16 39
e 16 42
e 16 43
e 16 44
e 16 45
e 16 49
e 16 61
e 16 68
e 16 69
e 16 70
e 16 75
e 16 88
e 16 95
e 16 96
e 16 111
e 16 118
e 17 18
e 17 20
e 17 31
e 17 40
e 17 42
e 17 43
e 17 44
e 17 45
e 17 50
e 17 68
e 17 69
e 17 71
e 17 76
e 17 89
e 17 95
e 17 96
e 17 112
e 17 118
e 17 119
e 18 21
e 18 24
e 18 32
e 18 42
e 18 43
e 18 44
e 18 45
e 18 62
e 18 68
e 18 69
e 18 72
e 18 95
e 18 96
e 18 118
e 18 120
e 18 134
e 18 147
e 19 20
e 19 21
e 19 22
e 19 23
e 19 30
e 19 39
e 19 46
e 19 47
e 19 48
e 19 49
e 19 61
e 19 70
e 19 74
e 19 75
e 19 88
e 19 100
e 19 111
e 19 123
e 19 140
e 19 167
e 20 21
e 20 22
e 20 31
e 20 40
e 20 46
e 20 47
e 20 48
e 20 50
e 20 71
e 20 74
e 20 76
e 20 89
e 20 100
e 20 112
e 20 119
e 20 123
e 20 140
e 20 167
e 21 22
e 21 24
e 21 32
e 21 46
e 21 47
e 21 48
e 21 62
e 21 72
e 21 74
e 21 100
e 21 120
e 21 123
e 21 134
e 21 140
e 21 147
e 21 167
e 22 25
e 22 41
e 22 46
e 22 47
e 22 48
e 22 51
e 22 63
e 22 73
e 22 74
e 22 77
e 22 90
e 22 100
e 22 121
e 22 123
e 22 140
e 22 148
e 22 167
e 23 24
e 23 25
e 23 30
e 23 39
e 23 49
e 23 52
e 23 53
e 23 54
e 23 61
e 23 70
e 23 75
e 23 81
e 23 88
e 23 105
e 23 106
e 23 111
e 23 142
e 23 156
e 24 25
e 24 32
e 24 52
e 24 53
e 24 54
e 24 62
e 24 72
e 24 81
e 24 105
e 24 106
e 24 120
e 24 134
e 24 142
e 24 147
e 24 156
e 25 41
e 25 51
e 25 52
e 25 53
e 25 54
e 25 63
e 25 73
e 25 77
e 25 81
e 25 90
e 25 105
e 25 106
e 25 121
e 25 142
e 25 148
e 25 156
e 26 55
e 26 57
e 26 65
e 26 69
e 26 74
e 26 81
e 26 82
e 26 84
e 26 94
e 26 104
e 26 107
e 26 127
e 26 136
e 26 143
e 26 149
e 27 28
e 27 29
e 27 33
e 27 36
e 27 42
e 27 52
e 27 56
e 27 57
e 27 58
e 27 78
e 27 83
e 27 85
e 27 97
e 27 108
e 27 113
e 27 131
e 27 137
e 27 144
e 27 145
e 27 157
e 28 29
e 28 34
e 28 38
e 28 44
e 28 47
e 28 56
e 28 57
e 28 60
e 28 80
e 28 83
e 28 99
e 28 101
e 28 108
e 28 138
e 28 144
e 28 145
e 28 151
e 28 157
e 29 35
e 29 45
e 29 48
e 29 54
e 29 56
e 29 57
e 29 67
e 29 83
e 29 102
e 29 108
e 29 115
e 29 133
e 29 144
e 29 145
e 29 152
e 29 157
e 29 160
e 30 31
e 30 32
e 30 39
e 30 49
e 30 58
e 30 59
e 30 60
e 30 61
e 30 70
e 30 75
e 30 84
e 30 88
e 30 111
e 30 128
e 30 158
e 30 169
e 30 170
e 31 32
e 31 40
e 31 50
e 31 58
e 31 59
e 31 60
e 31 71
e 31 76
e 31 84
e 31 89
e 31 112
e 31 119
e 31 128
e 31 158
e 31 169
e 31 170
e 32 58
e 32 59
e 32 60
e 32 62
e 32 72
e 32 84
e 32 120
e 32 128
e 32 134
e 32 147
e 32 158
e 32 169
e 32 170
e 33 34
e 33 35
e 33 36
e 33 42
e 33 52
e 33 58
e 33 64
e 33 65
e 33 78
e 33 85
e 33 87
e 33 97
e 33 110
e 33 113
e 33 130
e 33 131
e 33 137
e 33 146
e 34 35
e 34 38
e 34 44
e 34 47
e 34 60
e 34 64
e 34 65
e 34 80
e 34 87
e 34 99
e 34 101
e 34 110
e 34 130
e 34 138
e 34 146
e 34 151
e 35 45
e 35 48
e 35 54
e 35 64
e 35 65
e 35 67
e 35 87
e 35 102
e 35 110
e 35 115
e 35 130
e 35 133
e 35 146
e 35 152
e 35 160
e 36 37
e 36 38
e 36 42
e 36 52
e 36 58
e 36 66
e 36 78
e 36 85
e 36 91
e 36 92
e 36 97
e 36 113
e 36 116
e 36 131
e 36 137
e 36 153
e 36 163
e 37 38
e 37 43
e 37 46
e 37 53
e 37 59
e 37 66
e 37 79
e 37 86
e 37 91
e 37 92
e 37 98
e 37 114
e 37 116
e 37 132
e 37 150
e 37 153
e 37 163
e 38 44
e 38 47
e 38 60
e 38 66
e 38 80
e 38 91
e 38 92
e 38 99
e 38 101
e 38 116
e 38 138
e 38 151
e 38 153
e 38 163
e 39 40
e 39 41
e 39 49
e 39 61
e 39 67
e 39 70
e 39 75
e 39 88
e 39 93
e 39 94
e 39 111
e 39 117
e 39 154
e 39 164
e 39 165
e 39 173
e 40 41
e 40 50
e 40 67
e 40 71
e 40 76
e 40 89
e 40 93
e 40 94
e 40 112
e 40 117
e 40 119
e 40 154
e 40 164
e 40 165
e 40 173
e 41 51
e 41 63
e 41 67
e 41 73
e 41 77
e 41 90
e 41 93
e 41 94
e 41 117
e 41 121
e 41 148
e 41 154
e 41 164
e 41 165
e 41 173
e 42 43
e 42 44
e 42 45
e 42 52
e 42 58
e 42 68
e 42 69
e 42 78
e 42 85
e 42 95
e 42 96
e 42 97
e 42 113
e 42 118
e 42 131
e 42 137
e 43 44
e 43 45
e 43 46
e 43 53
e 43 59
e 43 68
e 43 69
e 43 79
e 43 86
e 43 95
e 43 96
e 43 98
e 43 114
e 43 118
e 43 132
e 43 150
e 44 45
e 44 47
e 44 60
e 44 68
e 44 69
e 44 80
e 44 95
e 44 96
e 44 99
e 44 101
e 44 118
e 44 138
e 44 151
e 45 48
e 45 54
e 45 67
e 45 68
e 45 69
e 45 95
e 45 96
e 45 102
e 45 115
e 45 118
e 45 133
e 45 152
e 45 160
e 46 47
e 46 48
e 46 53
e 46 59
e 46 74
e 46 79
e 46 86
e 46 98
e 46 100
e 46 114
e 46 123
e 46 132
e 46 140
e 46 150
e 46 167
e 47 48
e 47 60
e 47 74
e 47 80
e 47 99
e 47 100
e 47 101
e 47 123
e 47 138
e 47 140
e 47 151
e 47 167
e 48 54
e 48 67
e 48 74
e 48 100
e 48 102
e 48 115
e 48 123
e 48 133
e 48 140
e 48 152
e 48 160
e 48 167
e 49 50
e 49 51
e 49 61
e 49 70
e 49 75
e 49 78
e 49 79
e 49 80
e 49 88
e 49 103
e 49 104
e 49 111
e 49 125
e 49 126
e 49 177
e 50 51
e 50 71
e 50 76
e 50 78
e 50 79
e 50 80
e 50 89
e 50 103
e 50 104
e 50 112
e 50 119
e 50 125
e 50 126
e 50 177
e 51 63
e 51 73
e 51 77
e 51 78
e 51 79
e 51 80
e 51 90
e 51 103
e 51 104
e 51 121
e 51 125
e 51 126
e 51 148
e 51 177
e 52 53
e 52 54
e 52 58
e 52 78
e 52 81
e 52 85
e 52 97
e 52 105
e 52 106
e 52 113
e 52 131
e 52 137
e 52 142
e 52 156
e 53 54
e 53 59
e 53 79
e 53 81
e 53 86
e 53 98
e 53 105
e 53 106
e 53 114
e 53 132
e 53 142
e 53 150
e 53 156
e 54 67
e 54 81
e 54 102
e 54 105
e 54 106
e 54 115
e 54 133
e 54 142
e 54 152
e 54 156
e 54 160
e 55 82
e 55 87
e 55 91
e 55 95
e 55 105
e 55 107
e 55 117
e 55 125
e 55 127
e 55 129
e 55 139
e 55 143
e 55 179
e 56 57
e 56 64
e 56 66
e 56 68
e 56 83
e 56 93
e 56 103
e 56 108
e 56 109
e 56 122
e 56 124
e 56 135
e 56 144
e 56 145
e 56 157
e 56 162
e 57 65
e 57 69
e 57 74
e 57 81
e 57 83
e 57 84
e 57 94
e 57 104
e 57 108
e 57 136
e 57 144
e 57 145
e 57 149
e 57 157
e 58 59
e 58 60
e 58 78
e 58 84
e 58 85
e 58 97
e 58 113
e 58 128
e 58 131
e 58 137
e 58 158
e 58 169
e 58 170
e 59 60
e 59 79
e 59 84
e 59 86
e 59 98
e 59 114
e 59 128
e 59 132
e 59 150
e 59 158
e 59 169
e 59 170
e 60 80
e 60 84
e 60 99
e 60 101
e 60 128
e 60 138
e 60 151
e 60 158
e 60 169
e 60 170
e 61 62
e 61 63
e 61 70
e 61 75
e 61 85
e 61 86
e 61 88
e 61 109
e 61 111
e 61 129
e 61 159
e 61 171
e 61 178
e 62 63
e 62 72
e 62 85
e 62 86
e 62 109
e 62 120
e 62 129
e 62 134
e 62 147
e 62 159
e 62 171
e 62 178
e 63 73
e 63 77
e 63 85
e 63 86
e 63 90
e 63 109
e 63 121
e 63 129
e 63 148
e 63 159
e 63 171
e 63 178
e 64 65
e 64 66
e 64 68
e 64 87
e 64 93
e 64 103
e 64 109
e 64 110
e 64 122
e 64 124
e 64 130
e 64 135
e 64 146
e 64 162
e 65 69
e 65 74
e 65 81
e 65 84
e 65 87
e 65 94
e 65 104
e 65 110
e 65 130
e 65 136
e 65 146
e 65 149
e 66 68
e 66 91
e 66 92
e 66 93
e 66 103
e 66 109
e 66 116
e 66 122
e 66 124
e 66 135
e 66 153
e 66 162
e 66 163
e 67 93
e 67 94
e 67 102
e 67 115
e 67 117
e 67 133
e 67 152
e 67 154
e 67 160
e 67 164
e 67 165
e 67 173
e 68 69
e 68 93
e 68 95
e 68 96
e 68 103
e 68 109
e 68 118
e 68 122
e 68 124
e 68 135
e 68 162
e 69 74
e 69 81
e 69 84
e 69 94
e 69 95
e 69 96
e 69 104
e 69 118
e 69 136
e 69 149
e 70 71
e 70 72
e 70 73
e 70 75
e 70 88
e 70 97
e 70 98
e 70 99
e 70 111
e 70 122
e 70 139
e 70 175
e 71 72
e 71 73
e 71 76
e 71 89
e 71 97
e 71 98
e 71 99
e 71 112
e 71 119
e 71 122
e 71 139
e 71 175
e 72 73
e 72 97
e 72 98
e 72 99
e 72 120
e 72 122
e 72 134
e 72 139
e 72 147
e 72 175
e 73 77
e 73 90
e 73 97
e 73 98
e 73 99
e 73 121
e 73 122
e 73 139
e 73 148
e 73 175
e 74 81
e 74 84
e 74 94
e 74 100
e 74 104
e 74 123
e 74 136
e 74 140
e 74 149
e 74 167
e 75 76
e 75 77
e 75 88
e 75 101
e 75 102
e 75 111
e 75 124
e 75 141
e 75 155
e 75 168
e 75 176
e 76 77
e 76 89
e 76 101
e 76 102
e 76 112
e 76 119
e 76 124
e 76 141
e 76 155
e 76 168
e 76 176
e 77 90
e 77 101
e 77 102
e 77 121
e 77 124
e 77 141
e 77 148
e 77 155
e 77 168
e 77 176
e 78 79
e 78 80
e 78 85
e 78 97
e 78 103
e 78 104
e 78 113
e 78 125
e 78 126
e 78 131
e 78 137
e 78 177
e 79 80
e 79 86
e 79 98
e 79 103
e 79 104
e 79 114
e 79 125
e 79 126
e 79 132
e 79 150
e 79 177
e 80 99
e 80 101
e 80 103
e 80 104
e 80 125
e 80 126
e 80 138
e 80 151
e 80 177
e 81 84
e 81 94
e 81 104
e 81 105
e 81 106
e 81 136
e 81 142
e 81 149
e 81 156
e 82 107
e 82 108
e 82 110
e 82 116
e 82 118
e 82 123
e 82 127
e 82 128
e 82 143
e 82 155
e 82 174
e 83 92
e 83 96
e 83 100
e 83 106
e 83 108
e 83 126
e 83 141
e 83 144
e 83 145
e 83 157
e 83 161
e 83 166
e 83 172
e 84 94
e 84 104
e 84 128
e 84 136
e 84 149
e 84 158
e 84 169
e 84 170
e 85 86
e 85 97
e 85 109
e 85 113
e 85 129
e 85 131
e 85 137
e 85 159
e 85 171
e 85 178
e 86 98
e 86 109
e 86 114
e 86 129
e 86 132
e 86 150
e 86 159
e 86 171
e 86 178
e 87 91
e 87 95
e 87 105
e 87 110
e 87 117
e 87 125
e 87 129
e 87 130
e 87 139
e 87 146
e 87 179
e 88 89
e 88 90
e 88 111
e 88 113
e 88 114
e 88 115
e 88 135
e 88 136
e 88 181
e 89 90
e 89 112
e 89 113
e 89 114
e 89 115
e 89 119
e 89 135
e 89 136
e 89 181
e 90 113
e 90 114
e 90 115
e 90 121
e 90 135
e 90 136
e 90 148
e 90 181
e 91 92
e 91 95
e 91 105
e 91 116
e 91 117
e 91 125
e 91 129
e 91 139
e 91 153
e 91 163
e 91 179
e 92 96
e 92 100
e 92 106
e 92 116
e 92 126
e 92 141
e 92 153
e 92 161
e 92 163
e 92 166
e 92 172
e 93 94
e 93 103
e 93 109
e 93 117
e 93 122
e 93 124
e 93 135
e 93 154
e 93 162
e 93 164
e 93 165
e 93 173
e 94 104
e 94 117
e 94 136
e 94 149
e 94 154
e 94 164
e 94 165
e 94 173
e 95 96
e 95 105
e 95 117
e 95 118
e 95 125
e 95 129
e 95 139
e 95 179
e 96 100
e 96 106
e 96 118
e 96 126
e 96 141
e 96 161
e 96 166
e 96 172
e 97 98
e 97 99
e 97 113
e 97 122
e 97 131
e 97 137
e 97 139
e 97 175
e 98 99
e 98 114
e 98 122
e 98 132
e 98 139
e 98 150
e 98 175
e 99 101
e 99 122
e 99 138
e 99 139
e 99 151
e 99 175
e 100 106
e 100 123
e 100 126
e 100 140
e 100 141
e 100 161
e 100 166
e 100 167
e 100 172
e 101 102
e 101 124
e 101 138
e 101 141
e 101 151
e 101 155
e 101 168
e 101 176
e 102 115
e 102 124
e 102 133
e 102 141
e 102 152
e 102 155
e 102 160
e 102 168
e 102 176
e 103 104
e 103 109
e 103 122
e 103 124
e 103 125
e 103 126
e 103 135
e 103 162
e 103 177
e 104 125
e 104 126
e 104 136
e 104 149
e 104 177
e 105 106
e 105 117
e 105 125
e 105 129
e 105 139
e 105 142
e 105 156
e 105 179
e 106 126
e 106 141
e 106 142
e 106 156
e 106 161
e 106 166
e 106 172
e 107 127
e 107 130
e 107 140
e 107 142
e 107 143
e 107 154
e 107 159
e 107 168
e 107 180
e 108 110
e 108 116
e 108 118
e 108 123
e 108 128
e 108 144
e 108 145
e 108 155
e 108 157
e 108 174
e 109 122
e 109 124
e 109 129
e 109 135
e 109 159
e 109 162
e 109 171
e 109 178
e 110 116
e 110 118
e 110 123
e 110 128
e 110 130
e 110 146
e 110 155
e 110 174
e 111 112
e 111 131
e 111 132
e 111 133
e 111 149
e 111 161
e 111 180
e 112 119
e 112 131
e 112 132
e 112 133
e 112 149
e 112 161
e 112 180
e 113 114
e 113 115
e 113 131
e 113 135
e 113 136
e 113 137
e 113 181
e 114 115
e 114 132
e 114 135
e 114 136
e 114 150
e 114 181
e 115 133
e 115 135
e 115 136
e 115 152
e 115 160
e 115 181
e 116 118
e 116 123
e 116 128
e 116 153
e 116 155
e 116 163
e 116 174
e 117 125
e 117 129
e 117 139
e 117 154
e 117 164
e 117 165
e 117 173
e 117 179
e 118 123
e 118 128
e 118 155
e 118 174
e 119 120
e 119 121
e 119 137
e 119 138
e 119 166
e 119 174
e 119 182
e 120 121
e 120 134
e 120 137
e 120 138
e 120 147
e 120 166
e 120 174
e 120 182
e 121 137
e 121 138
e 121 148
e 121 166
e 121 174
e 121 182
e 122 124
e 122 135
e 122 139
e 122 162
e 122 175
e 123 128
e 123 140
e 123 155
e 123 167
e 123 174
e 124 135
e 124 141
e 124 155
e 124 162
e 124 168
e 124 176
e 125 126
e 125 129
e 125 139
e 125 177
e 125 179
e 126 141
e 126 161
e 126 166
e 126 172
e 126 177
e 127 143
e 127 145
e 127 146
e 127 158
e 127 165
e 127 171
e 127 184
e 128 155
e 128 158
e 128 169
e 128 170
e 128 174
e 129 139
e 129 159
e 129 171
e 129 178
e 129 179
e 130 140
e 130 142
e 130 146
e 130 154
e 130 159
e 130 168
e 130 180
e 131 132
e 131 133
e 131 137
e 131 149
e 131 161
e 131 180
e 132 133
e 132 149
e 132 150
e 132 161
e 132 180
e 133 149
e 133 152
e 133 160
e 133 161
e 133 180
e 134 147
e 134 150
e 134 151
e 134 152
e 134 162
e 134 172
e 134 185
e 135 136
e 135 162
e 135 181
e 136 149
e 136 181
e 137 138
e 137 166
e 137 174
e 137 182
e 138 151
e 138 166
e 138 174
e 138 182
e 139 175
e 139 179
e 140 142
e 140 154
e 140 159
e 140 167
e 140 168
e 140 180
e 141 155
e 141 161
e 141 166
e 141 168
e 141 172
e 141 176
e 142 154
e 142 156
e 142 159
e 142 168
e 142 180
e 143 157
e 143 163
e 143 169
e 143 177
e 143 185
e 144 145
e 144 153
e 144 156
e 144 157
e 144 164
e 144 175
e 144 176
e 144 183
e 145 146
e 145 157
e 145 158
e 145 165
e 145 171
e 145 184
e 146 158
e 146 165
e 146 171
e 146 184
e 147 148
e 147 160
e 147 179
e 147 183
e 147 184
e 148 160
e 148 179
e 148 183
e 148 184
e 149 161
e 149 180
e 150 151
e 150 152
e 150 162
e 150 172
e 150 185
e 151 152
e 151 162
e 151 172
e 151 185
e 152 160
e 152 162
e 152 172
e 152 185
e 153 156
e 153 163
e 153 164
e 153 175
e 153 176
e 153 183
e 154 159
e 154 164
e 154 165
e 154 168
e 154 173
e 154 180
e 155 168
e 155 174
e 155 176
e 156 164
e 156 175
e 156 176
e 156 183
e 157 163
e 157 169
e 157 177
e 157 185
e 158 165
e 158 169
e 158 170
e 158 171
e 158 184
e 159 168
e 159 171
e 159 178
e 159 180
e 160 179
e 160 183
e 160 184
e 161 166
e 161 172
e 161 180
e 162 172
e 162 185
e 163 169
e 163 177
e 163 185
e 164 165
e 164 173
e 164 175
e 164 176
e 164 183
e 165 171
e 165 173
e 165 184
e 166 172
e 166 174
e 166 182
e 167 170
e 167 173
e 167 178
e 167 181
e 167 182
e 168 176
e 168 180
e 169 170
e 169 177
e 169 185
e 170 173
e 170 178
e 170 181
e 170 182
e 171 178
e 171 184
e 172 185
e 173 178
e 173 181
e 173 182
e 174 182
e 175 176
e 175 183
e 176 183
e 177 185
e 178 181
e 178 182
e 179 183
e 179 184
e 181 182
e 183 184
